92	0

0	3	2	3	4
9	3	5	7	9
6	6	5	6	7	8	9	12
8	5	5	6	7	8	9
9	3	14	15	18
7	6	14	15	16	17	18	21
7	5	14	15	17	18	21
8	5	14	15	17	18	21
1	2	10	11
5	6	14	15	16	17	18	21
3	7	13	14	15	16	17	18	21
9	6	14	15	16	17	18	21
9	3	19	20	22
6	3	19	20	22
3	5	19	20	22	24	26
4	5	19	20	22	24	26
8	3	19	20	22
6	3	19	20	22
5	5	28	30	31	33	39
2	4	23	25	27	29
10	4	23	25	27	29
2	4	23	25	27	29
1	5	28	30	31	33	39
8	5	28	30	31	33	39
5	2	32	34
8	5	28	30	31	33	39
3	5	28	30	31	33	39
2	2	32	34
4	2	32	34
3	3	35	37	41
7	6	38	42	43	44	47	50
3	5	36	38	40	42	44
7	6	38	42	43	44	47	50
1	3	35	37	41
2	5	36	38	40	42	44
9	3	45	46	48
7	6	43	45	46	47	48	50
7	3	45	46	48
8	7	42	43	45	46	47	48	50
5	6	43	45	46	47	48	50
9	5	43	45	46	47	48
9	5	49	51	52	54	55
8	4	53	56	58	62
8	5	48	49	51	52	55
3	5	49	51	52	54	55
7	2	57	62
6	3	49	52	54
4	5	53	54	56	58	62
6	2	60	61
9	5	53	54	56	58	62
3	4	53	56	58	62
2	4	53	56	58	62
2	1	57
7	4	63	65	67	68
8	4	63	65	67	68
3	4	59	60	61	64
1	4	59	60	61	64
9	3	63	65	67
4	4	63	65	67	68
1	4	63	65	67	68
10	2	66	73
4	4	63	65	67	68
7	2	69	76
8	5	66	67	73	74	75
4	4	66	73	74	75
1	3	69	72	76
5	2	69	76
9	2	69	76
1	6	70	71	77	78	79	80
6	4	81	82	85	87
6	4	81	82	85	87
5	2	77	80
8	4	81	82	83	84
5	3	77	79	80
5	3	77	79	80
5	1	80
2	4	81	82	83	84
8	3	81	85	87
9	2	86	87
1	4	81	82	83	84
3	1	86
10	2	88	89
10	1	86
4	2	85	87
2	1	86
1	2	88	89
7	2	89	90
3	1	90
3	1	91
3	1	91
3	1	92
0	0
